#Input example Generated by GS JUNG@ornl 
units           metal
dimension       3
boundary        p p p 
atom_style      full
atom_modify     sort 0 0.0    # turn off sorting of the coordinates
read_data       graphene.data

# initialize system

velocity	all create 10.0 87287 loop geom

pair_style      zero 1.0
pair_coeff	* *  

neighbor        1.0 bin
neigh_modify    every 1 delay 0 check yes

variable	dt equal 0.0005
timestep        ${dt}
dump		equil all xyz 10 equil.xyz
dump_modify     equil element C H

thermo      	10
thermo_style 	custom step temp ke pe press pxx pyy pzz xlo xhi ylo yhi 
thermo_modify   norm no flush yes

fix             integ   all nve
fix             2 all dftbp dftb_in.hsd NULL
fix_modify      2 energy yes
fix             therm   all langevin  10.0 10.0  0.1 699483

fix	        emin all box/relax x 0.0 y 0.0
min_style       cg
min_modify      dmax 0.2
min_modify      line quadratic
minimize        0.0 1.0e-8 1000 10000
unfix		emin




run 		100

